WARNING: for repeatability, setting FPU to use double precision
============================[ Problem Statistics ]=============================
|                                                                             |
|  Number of variables:           100                                         |
|  Number of clauses:             449                                         |
|  Parse time:                   0.00 s                                       |
|  Simplification time:          0.00 s                                       |
|                                                                             |
============================[ Search Statistics ]==============================
| Conflicts |          ORIGINAL         |          LEARNT          | Progress |
|           |    Vars  Clauses Literals |    Limit  Clauses Lit/Cl |          |
===============================================================================
===============================================================================
restarts              : 1
conflicts             : 88             (35313 /sec)
decisions             : 112            (0.00 % random) (44944 /sec)
propagations          : 1990           (798555 /sec)
conflict literals     : 575            (14.56 % deleted)
Memory used           : 13.00 MB
CPU time              : 0.002492 s

SATISFIABLE
